(set-option :produce-models true)
(set-option :global-declarations true)
(set-option :produce-unsat-cores true)
(set-option :produce-abducts true)
(set-logic ALL)
(get-info :error-behavior)
(push 1)

(declare-fun y () (_ BitVec 32))
(declare-fun x () (_ BitVec 32))
(define-fun x!0 () Bool (bvslt y x))
(assert (! x!0 :named x!1))

(declare-fun z () (_ BitVec 32))
(define-fun x!2 () Bool (bvslt z x))
(define-fun x!3 () Bool (not x!2))
(push 2)
(assert (! x!3 :named x!4))
(check-sat)
(get-value (x))
(get-value (y))
(get-value (z))
(pop 2)
(get-abduct abd x!2)
(get-abduct-next)
(get-abduct-next)
(pop 1)
(exit)